238
236
115
149
143
132
131
194
207
144
217
134
199
154
105
143
269
151
162
301
175
159
197
106
188
223
258
132
133
190
212
184
179
172
262
155
164
185
217
183
201
192
190
178
216
209
228
163
178
186
203
167
197
180
271
280
188
144
165
190
138
203
247
200
169
130
276
156
185
144
185
222
198
153
214
184
151
232
191
185
216
221
239
166
142
151
172
172
177
142
187
217
169
184
195
268
189
196
141
221
